Welcome to the CBC MILP Solver 
Version: 2.10.12 
Build Date: Jun 17 2025 

command line - cbc -solve -quit (default strategy 1)
Presolve 900 (0) rows, 3561 (-40) columns and 19533 (-39) elements
Perturbing problem by 0.001% of 0.13512002 - largest nonzero change 5.0643443e-05 ( 0.037480341%) - largest zero change 5.064107e-05
0  Obj -0 Dual inf 40.524004 (300)
93  Obj 299.91293 Primal inf 234.56872 (282)
186  Obj 299.91246 Primal inf 173.91636 (277)
279  Obj 299.91198 Primal inf 110.32332 (264)
361  Obj 299.91185 Primal inf 477.0376 (266)
408  Obj 299.91185 Primal inf 357.73015 (270)
458  Obj 299.91184 Primal inf 84.725734 (230)
515  Obj 299.91184 Primal inf 165.56093 (254)
574  Obj 299.91183 Primal inf 505.34025 (293)
640  Obj 299.91183 Primal inf 74.145982 (248)
713  Obj 299.91183 Primal inf 181.99984 (282)
795  Obj 299.91183 Primal inf 24.614588 (233)
884  Obj 299.91183 Primal inf 12.357031 (192)
972  Obj 299.91183 Primal inf 2.8135403 (121)
1062  Obj 299.91183 Primal inf 0.2894041 (54)
1135  Obj 299.91183
Optimal - objective value 300
After Postsolve, objective 300, infeasibilities - dual 0 (0), primal 0 (0)
Optimal objective 300 - 1135 iterations time 0.232, Presolve 0.01
Continuous objective value is 300 - 0.23 seconds
Optimal - objective value 300
Optimal - objective value 300
Presolve 623 (-277) rows, 3298 (-303) columns and 35430 (15858) elements
Perturbing problem by 0.001% of 0.13512002 - largest nonzero change 5.7269399e-06 ( 0.0042384097%) - largest zero change 5.7268697e-06
0  Obj 300.00964 Primal inf 17.842906 (174)
28  Obj 300.00964
Optimal - objective value 300
Presolve 623 (0) rows, 3298 (0) columns and 35430 (0) elements
0  Obj 300
Optimal - objective value 300
Optimal - objective value 300
processed model has 623 rows, 3298 columns (3298 integer (3274 of which binary)) and 35430 elements
0  Obj 300
Optimal - objective value 300
Optimal - objective value 300
Cutoff increment increased from 1e-05 to 0.9999
Optimal - objective value -300
Initial state - 282 integers unsatisfied sum - 33.5005
Optimal - objective value -300
Optimal - objective value -300
0  Obj 19.873225 Dual inf 27571.857 (1439)
Perturbing problem by 0.001% of 5.3153492 - largest nonzero change 6.3072467e-05 ( 0.00056197121%) - largest zero change 3.5406171e-06
93  Obj 17.846374 Dual inf 11722.391 (1216)
186  Obj 17.006696 Dual inf 17443.357 (1314)
279  Obj 16.224292 Dual inf 29339.945 (1440)
369  Obj 15.745704 Dual inf 38257.353 (1490)
460  Obj 15.450055 Dual inf 11496.453 (1200)
553  Obj 15.171672 Dual inf 25937.062 (1448)
646  Obj 14.99725 Dual inf 16688.782 (1323)
737  Obj 14.777281 Dual inf 4831.0238 (895)
830  Obj 14.614876 Dual inf 827.70478 (467)
923  Obj 14.47486 Dual inf 6177.5622 (981)
1016  Obj 14.417188 Dual inf 98.701701 (46)
1082  Obj 14.410561
1082  Obj 14.410604 Primal inf 1.5921693e-05 (1) Dual inf 5.1271549e+11 (1564)
1084  Obj 14.410604
Optimal - objective value 14.410604
Pass   1: suminf.   28.67816 (278) obj. 299.998 iterations 1084
0  Obj 14.346001 Dual inf 3802.9994 (851)
Perturbing problem by 0.001% of 5.3153492 - largest nonzero change 6.2982479e-05 ( 0.00054065952%) - largest zero change 6.9105722e-06
93  Obj 14.114501 Dual inf 1682.792 (595)
186  Obj 13.764371 Dual inf 1498.0722 (559)
279  Obj 13.700228 Dual inf 67.341682 (124)
300  Obj 13.697705
300  Obj 13.69772
Optimal - objective value 13.69772
Pass   2: suminf.   28.31372 (280) obj. 299.996 iterations 300
No solution found this major pass
After 1.05 seconds - Feasibility pump exiting - took 0.68 seconds
Optimal - objective value -300
Optimal - objective value -300
Exiting on maximum time
Partial search - best objective -1e+50 (best possible 300), took 0 iterations and 0 nodes (1.08 seconds)
Maximum depth 0, 0 variables fixed on reduced cost
Cuts at root node changed objective from 300 to 300
Probing was tried 0 times and created 0 cuts of which 0 were active after adding rounds of cuts (0.000 seconds)
Gomory was tried 0 times and created 0 cuts of which 0 were active after adding rounds of cuts (0.000 seconds)
Knapsack was tried 0 times and created 0 cuts of which 0 were active after adding rounds of cuts (0.000 seconds)
Clique was tried 0 times and created 0 cuts of which 0 were active after adding rounds of cuts (0.000 seconds)
MixedIntegerRounding2 was tried 0 times and created 0 cuts of which 0 were active after adding rounds of cuts (0.000 seconds)
FlowCover was tried 0 times and created 0 cuts of which 0 were active after adding rounds of cuts (0.000 seconds)
TwoMirCuts was tried 0 times and created 0 cuts of which 0 were active after adding rounds of cuts (0.000 seconds)
ZeroHalf was tried 0 times and created 0 cuts of which 0 were active after adding rounds of cuts (0.000 seconds)

Result - Stopped on time limit

No feasible solution found
Upper bound:                    300.000
Enumerated nodes:               0
Total iterations:               0
Time (CPU seconds):             1.08
Time (Wallclock seconds):       1.08

Total time (CPU seconds):       1.09   (Wallclock seconds):       1.09

